Speck32/MILP/sol/6Round_1015.sol
# Objective value = 16.000000000000004
pro0Rd0 -0.0
pro1Rd0 1.0
pro2Rd0 1.0000000000000002
pro3Rd0 1.5543122344752192e-15
pro4Rd0 1.0
pro5Rd0 1.0
pro6Rd0 -0.0
pro7Rd0 2.0122792321330962e-16
pro8Rd0 -2.3592239273284576e-16
pro9Rd0 -0.0
pro10Rd0 -9.020562075079397e-17
pro11Rd0 -0.0
pro12Rd0 1.0
pro13Rd0 -1.8041124150158794e-16
pro14Rd0 -1.2750217548429532e-16
pro0Rd1 -0.0
pro1Rd1 0.0
pro2Rd1 -1.8041124150158794e-16
pro3Rd1 -0.0
pro4Rd1 -0.0
pro5Rd1 0.0
pro6Rd1 9.020562075079397e-17
pro7Rd1 -2.7755575615628914e-17
pro8Rd1 1.0
pro9Rd1 1.0000000000000002
pro10Rd1 1.0
pro11Rd1 -7.840950111415168e-16
pro12Rd1 1.1518563880486e-15
pro13Rd1 -0.0
pro14Rd1 -0.0
pro0Rd2 -0.0
pro1Rd2 0.0
pro2Rd2 9.71445146547012e-17
pro3Rd2 8.326672684688674e-17
pro4Rd2 1.457167719820518e-15
pro5Rd2 -7.251144129583054e-16
pro6Rd2 -0.0
pro7Rd2 -1.8041124150158794e-16
pro8Rd2 -0.0
pro9Rd2 -0.0
pro10Rd2 -0.0
pro11Rd2 0.0
pro12Rd2 -1.6653345369377348e-16
pro13Rd2 0.0
pro14Rd2 0.0
pro0Rd3 -2.914335439641036e-16
pro1Rd3 -2.914335439641036e-16
pro2Rd3 -2.914335439641036e-16
pro3Rd3 -3.885780586188048e-16
pro4Rd3 -0.0
pro5Rd3 -0.0
pro6Rd3 1.0
pro7Rd3 -0.0
pro8Rd3 0.0
pro9Rd3 1.6653345369377348e-16
pro10Rd3 -0.0
pro11Rd3 -2.7755575615628914e-16
pro12Rd3 2.411265631607762e-16
pro13Rd3 -0.0
pro14Rd3 -0.0
pro0Rd4 -0.0
pro1Rd4 -0.0
pro2Rd4 1.3877787807814457e-16
pro3Rd4 -5.551115123125783e-17
pro4Rd4 -2.220446049250313e-16
pro5Rd4 2.914335439641036e-16
pro6Rd4 0.9999999999999997
pro7Rd4 1.3877787807814457e-16
pro8Rd4 -1.3877787807814457e-17
pro9Rd4 -0.0
pro10Rd4 5.551115123125785e-16
pro11Rd4 -2.7755575615628914e-16
pro12Rd4 -5.551115123125783e-17
pro13Rd4 1.0
pro14Rd4 -0.0
pro0Rd5 0.0
pro1Rd5 -2.775557561562901e-17
pro2Rd5 -0.0
pro3Rd5 -5.551115123125783e-17
pro4Rd5 1.0
pro5Rd5 1.0
pro6Rd5 0.9999999999999983
pro7Rd5 6.661338147750938e-16
pro8Rd5 -0.0
pro9Rd5 0.0
pro10Rd5 0.0
pro11Rd5 1.0000000000000013
pro12Rd5 8.881784197001252e-16
pro13Rd5 1.0
pro14Rd5 1.457167719820518e-16
p0 -1.5681900222830336e-15
p1 -2.1510571102112408e-16
p2 -4.0505793164058446e-16
p3 -2.7755575615628914e-17
p4 -9.020562075079397e-17
p5 -1.8041124150158794e-16
p6 1.0
p7 -0.0
p8 -1.2750217548429532e-16
p9 1.5751289161869408e-15
p10 0.0
p11 1.0
p12 6.938893903907228e-16
p13 0.9999999999999987
p14 -0.0
p15 0.9999999999999991
p16 0.0
p17 0.0
p18 0.0
p19 -0.0
p20 1.0
p21 1.0
p22 1.0
p23 -1.5543122344752192e-15
p24 -1.2750217548429532e-16
p25 -2.463307335887066e-15
p26 -2.7755575615628914e-17
p27 -9.020562075079397e-17
p28 -1.8041124150158794e-16
p29 1.0
p30 -1.8041124150158794e-16
p31 -1.2750217548429532e-16
p0Rd1 9.020562075079397e-17
p16Rd1 -9.020562075079397e-17
temp0Rnd0 0.0
p1Rd1 0.0
p17Rd1 -0.0
temp1Rnd0 0.0
p2Rd1 1.0
p18Rd1 0.0
temp2Rnd0 1.0
p3Rd1 1.0000000000000002
p19Rd1 -1.8041124150158794e-16
temp3Rnd0 1.0
p4Rd1 1.0
p20Rd1 -0.0
temp4Rnd0 1.0
p5Rd1 -1.5543122344752192e-15
p21Rd1 -0.0
temp5Rnd0 -1.5543122344752192e-15
p6Rd1 -1.2750217548429532e-16
p22Rd1 0.0
temp6Rnd0 -1.2750217548429532e-16
p7Rd1 -1.5681900222830336e-15
p23Rd1 -5.551115123125783e-17
temp7Rnd0 -1.5681900222830336e-15
p8Rd1 0.0
p24Rd1 -2.7755575615628914e-17
temp8Rnd0 -2.7755575615628914e-17
p9Rd1 -9.020562075079397e-17
p25Rd1 -0.0
temp9Rnd0 -9.020562075079397e-17
p10Rd1 -1.8041124150158794e-16
p26Rd1 3.608224830031759e-16
temp10Rnd0 -0.0
p11Rd1 0.0
p27Rd1 1.0
temp11Rnd0 1.0
p12Rd1 -1.8041124150158794e-16
p28Rd1 0.0
temp12Rnd0 -1.8041124150158794e-16
p13Rd1 -0.0
p29Rd1 -1.2750217548429532e-16
temp13Rnd0 -1.2750217548429532e-16
p14Rd1 -0.0
p30Rd1 0.0
temp14Rnd0 0.0
p15Rd1 -0.0
p31Rd1 -0.0
temp15Rnd0 0.0
temp0 -1.2750217548429532e-16
p0Rd2 0.0
p16Rd2 -0.0
temp0Rnd1 -0.0
p1Rd2 -1.8041124150158794e-16
p17Rd2 0.0
temp1Rnd1 -1.8041124150158794e-16
p2Rd2 -0.0
p18Rd2 0.0
temp2Rnd1 0.0
p3Rd2 0.0
p19Rd2 0.0
temp3Rnd1 -0.0
p4Rd2 -0.0
p20Rd2 0.0
temp4Rnd1 -0.0
p5Rd2 -0.0
p21Rd2 -5.551115123125783e-17
temp5Rnd1 -5.551115123125783e-17
p6Rd2 0.0
p22Rd2 -7.251144129583054e-16
temp6Rnd1 -1.8041124150158794e-16
p7Rd2 -0.0
p23Rd2 0.0
temp7Rnd1 -0.0
p8Rd2 -0.0
p24Rd2 -1.8041124150158794e-16
temp8Rnd1 9.020562075079397e-17
p9Rd2 1.0
p25Rd2 0.0
temp9Rnd1 1.0
p10Rd2 0.0
p26Rd2 0.0
temp10Rnd1 0.0
p11Rd2 0.0
p27Rd2 -0.0
temp11Rnd1 -6.375108774214766e-17
p12Rd2 -7.840950111415168e-16
p28Rd2 -0.0
temp12Rnd1 9.402201239794294e-16
p13Rd2 -1.6653345369377348e-16
p29Rd2 -1.6653345369377348e-16
temp13Rnd1 -1.6653345369377348e-16
p14Rd2 1.457167719820518e-15
p30Rd2 -0.0
temp14Rnd1 6.38378239159465e-16
p15Rd2 -0.0
p31Rd2 0.0
temp15Rnd1 0.0
temp1 0.0
p0Rd3 1.0
p16Rd3 1.0
temp0Rnd2 1.0
p1Rd3 0.0
p17Rd3 0.0
temp1Rnd2 0.0
p2Rd3 -0.0
p18Rd3 0.0
temp2Rnd2 -0.0
p3Rd3 9.71445146547012e-17
p19Rd3 2.914335439641036e-16
temp3Rnd2 2.914335439641036e-16
p4Rd3 8.326672684688674e-17
p20Rd3 -2.498001805406602e-16
temp4Rnd2 -2.498001805406602e-16
p5Rd3 0.0
p21Rd3 0.0
temp5Rnd2 0.0
p6Rd3 -1.8041124150158794e-16
p22Rd3 -0.0
temp6Rnd2 -1.8041124150158794e-16
p7Rd3 -0.0
p23Rd3 0.0
temp7Rnd2 0.0
p8Rd3 -0.0
p24Rd3 0.0
temp8Rnd2 0.0
p9Rd3 0.0
p25Rd3 0.0
temp9Rnd2 0.0
p10Rd3 0.0
p26Rd3 0.0
temp10Rnd2 0.0
p11Rd3 0.0
p27Rd3 -1.6653345369377348e-16
temp11Rnd2 -1.6653345369377348e-16
p12Rd3 -0.0
p28Rd3 -0.0
temp12Rnd2 0.0
p13Rd3 -1.6653345369377348e-16
p29Rd3 -1.6653345369377348e-16
temp13Rnd2 -1.6653345369377348e-16
p14Rd3 0.0
p30Rd3 -0.0
temp14Rnd2 -0.0
p15Rd3 0.0
p31Rd3 -0.0
temp15Rnd2 -0.0
temp2 0.0
p0Rd4 1.0000000000000002
p16Rd4 1.0000000000000002
temp0Rnd3 1.0000000000000002
p1Rd4 -2.914335439641036e-16
p17Rd4 -0.0
temp1Rnd3 0.0
p2Rd4 -2.914335439641036e-16
p18Rd4 -1.6653345369377348e-16
temp2Rnd3 -2.914335439641036e-16
p3Rd4 -3.3306690738754696e-16
p19Rd4 -3.3306690738754696e-16
temp3Rnd3 -3.3306690738754696e-16
p4Rd4 1.110223024625157e-16
p20Rd4 1.110223024625157e-16
temp4Rnd3 1.110223024625157e-16
p5Rd4 -0.0
p21Rd4 0.0
temp5Rnd3 -0.0
p6Rd4 -0.0
p22Rd4 0.0
temp6Rnd3 0.0
p7Rd4 1.0
p23Rd4 1.0
temp7Rnd3 1.0
p8Rd4 -0.0
p24Rd4 0.0
temp8Rnd3 0.0
p9Rd4 -0.0
p25Rd4 -1.6653345369377348e-16
temp9Rnd3 -1.6653345369377348e-16
p10Rd4 1.6653345369377348e-16
p26Rd4 1.6653345369377348e-16
temp10Rnd3 1.6653345369377348e-16
p11Rd4 -1.6653345369377348e-16
p27Rd4 9.860761315262648e-32
temp11Rnd3 -2.4286128663675294e-16
p12Rd4 -2.7755575615628914e-16
p28Rd4 -2.7755575615628914e-16
temp12Rnd3 -2.7755575615628914e-16
p13Rd4 -5.551115123125783e-17
p29Rd4 -5.551115123125783e-17
temp13Rnd3 -5.551115123125783e-17
p14Rd4 -0.0
p30Rd4 1.0
temp14Rnd3 1.0
p15Rd4 0.0
p31Rd4 -0.0
temp15Rnd3 0.0
temp3 0.0
p0Rd5 1.0
p16Rd5 0.9999999999999999
temp0Rnd4 1.0
p1Rd5 -0.0
p17Rd5 2.220446049250313e-16
temp1Rnd4 -8.326672684688674e-17
p2Rd5 3.885780586188047e-16
p18Rd5 -8.326672684688674e-17
temp2Rnd4 3.885780586188047e-16
p3Rd5 -5.551115123125783e-16
p19Rd5 -5.551115123125783e-16
temp3Rnd4 -5.551115123125783e-16
p4Rd5 -0.0
p20Rd5 -0.0
temp4Rnd4 -0.0
p5Rd5 -2.220446049250313e-16
p21Rd5 1.0000000000000004
temp5Rnd4 1.0
p6Rd5 2.914335439641036e-16
p22Rd5 -2.220446049250313e-16
temp6Rnd4 2.7755575615628914e-17
p7Rd5 -0.0
p23Rd5 -1.6653345369377348e-16
temp7Rnd4 -1.6653345369377348e-16
p8Rd5 1.3877787807814457e-16
p24Rd5 2.7755575615628914e-16
temp8Rnd4 2.7755575615628914e-16
p9Rd5 -3.3306690738754696e-16
p25Rd5 3.885780586188047e-16
temp9Rnd4 -0.0
p10Rd5 1.6653345369377348e-16
p26Rd5 -5.551115123125783e-16
temp10Rnd4 5.551115123125783e-17
p11Rd5 -2.220446049250314e-16
p27Rd5 0.0
temp11Rnd4 -2.220446049250314e-16
p12Rd5 -5.551115123125783e-16
p28Rd5 1.0000000000000004
temp12Rnd4 1.0
p13Rd5 -0.0
p29Rd5 -1.1102230246251565e-16
temp13Rnd4 -1.1102230246251565e-16
p14Rd5 -0.0
p30Rd5 1.0000000000000002
temp14Rnd4 1.0000000000000002
p15Rd5 0.0
p31Rd5 0.0
temp15Rnd4 0.0
temp4 0.0
p0Rd6 1.0000000000000004
p16Rd6 0.9999999999999997
temp0Rnd5 1.0000000000000004
p1Rd6 1.6653345369377348e-16
p17Rd6 -0.0
temp1Rnd5 -4.440892098500626e-16
p2Rd6 2.7755575615628914e-17
p18Rd6 2.7755575615628914e-17
temp2Rnd5 2.7755575615628914e-17
p3Rd6 -5.551115123125783e-16
p19Rd6 1.0
temp3Rnd5 1.0
p4Rd6 -5.551115123125783e-17
p20Rd6 0.0
temp4Rnd5 -0.0
p5Rd6 1.0000000000000004
p21Rd6 1.0
temp5Rnd5 1.0
p6Rd6 1.0000000000000002
p22Rd6 1.0
temp6Rnd5 1.0000000000000002
p7Rd6 0.9999999999999983
p23Rd6 0.9999999999999971
temp7Rnd5 0.9999999999999983
p8Rd6 4.163336342344336e-16
p24Rd6 -4.440892098500627e-16
temp8Rnd5 -4.440892098500627e-16
p9Rd6 3.885780586188047e-16
p25Rd6 6.10622663543836e-16
temp9Rnd5 3.885780586188047e-16
p10Rd6 -5.551115123125783e-16
p26Rd6 1.000000000000001
temp10Rnd5 1.0000000000000004
p11Rd6 0.0
p27Rd6 -3.3306690738754696e-16
temp11Rnd5 -1.1102230246251565e-16
p12Rd6 1.0
p28Rd6 -3.3306690738754696e-16
temp12Rnd5 1.0
p13Rd6 7.91033905045424e-16
p29Rd6 7.91033905045424e-16
temp13Rnd5 7.91033905045424e-16
p14Rd6 1.0000000000000002
p30Rd6 2.983724378680108e-16
temp14Rnd5 0.9999999999999999
p15Rd6 0.0
p31Rd6 -0.0
temp15Rnd5 1.1102230246251565e-16
temp5 6.938893903907228e-17
